NAME : 10_3_3_1_(14).dat
COMMENT : Henke, Speranza, Wäscher, 2015
TYPE : MCVRP
DIMENSION : 11
EDGE_WEIGHT_TYPE : DISTANCE_MATRIX
CAPACITY : 1000
VEHICLES : 3
PRODUCT TYPES : 3
COMPARTMENTS : 3
NODE_COORD_SECTION
1 50 50
2 0.9 7.45
3 46.29 26.97
4 60.7 23.37
5 46.54 99.11
6 93.41 2.01
7 95.31 92.09
8 72.15 98.31
9 30.44 64.96
10 39.8 32.09
11 78.76 37.96
DEMAND_SECTION
1 0 0 0
2 0 124 0
3 102 0 0
4 0 0 309
5 97 0 0
6 189 0 0
7 0 113 0
8 176 0 0
9 64 0 0
10 145 0 0
11 0 226 0
DEPOT_SECTION
1
EOF